(set-logic QF_S)
(declare-fun var0 () String)
(assert (str.in.re var0 (re.++ (re.+ (re.+ (str.to.re "00"))) (re.++ (re.* (re.+ (str.to.re "11"))) (re.++ (re.* (re.+ (str.to.re "222"))) (re.++ (re.* (re.* (str.to.re "333"))) (re.++ (re.+ (re.* (str.to.re "4"))) (re.++ (re.union (re.+ (str.to.re "555")) (re.+ (str.to.re "6"))) (re.++ (re.+ (re.* (str.to.re "7"))) (re.++ (re.union (re.union (str.to.re "8") (str.to.re "99")) (re.union (str.to.re "a") (str.to.re "b"))) (re.++ (re.* (re.union (str.to.re "cc") (str.to.re "d"))) (re.++ (re.union (re.union (str.to.re "ee") (str.to.re "f")) (re.union (str.to.re "ggg") (str.to.re "hhh"))) (re.++ (re.+ (re.+ (str.to.re "iii"))) (re.++ (re.+ (re.union (str.to.re "jjj") (str.to.re "k"))) (re.++ (re.+ (re.* (str.to.re "ll"))) (re.++ (re.+ (re.union (str.to.re "mmm") (str.to.re "nnn"))) (re.++ (re.+ (re.+ (str.to.re "ooo"))) (re.++ (re.union (re.+ (str.to.re "ppp")) (re.+ (str.to.re "qq"))) (re.++ (re.union (re.* (str.to.re "rrr")) (re.* (str.to.re "s"))) (re.++ (re.union (re.+ (str.to.re "t")) (re.+ (str.to.re "uuu"))) (re.++ (re.* (re.* (str.to.re "vv"))) (re.++ (re.union (re.* (str.to.re "ww")) (re.* (str.to.re "xxx"))) (re.++ (re.+ (re.+ (str.to.re "yy"))) (re.++ (re.union (re.+ (str.to.re "z")) (re.+ (str.to.re "AA"))) (re.++ (re.* (re.* (str.to.re "BBB"))) (re.++ (re.union (re.* (str.to.re "CCC")) (re.* (str.to.re "D"))) (re.++ (re.* (re.union (str.to.re "E") (str.to.re "FFF"))) (re.++ (re.union (re.+ (str.to.re "GG")) (re.+ (str.to.re "HHH"))) (re.++ (re.* (re.union (str.to.re "III") (str.to.re "J"))) (re.++ (re.union (re.union (str.to.re "KKK") (str.to.re "LL")) (re.union (str.to.re "M") (str.to.re "NNN"))) (re.++ (re.+ (re.+ (str.to.re "OO"))) (re.++ (re.+ (re.* (str.to.re "P"))) (re.++ (re.* (re.+ (str.to.re "QQQ"))) (re.++ (re.* (re.union (str.to.re "R") (str.to.re "SS"))) (re.++ (re.* (re.* (str.to.re "TTT"))) (re.++ (re.+ (re.+ (str.to.re "UUU"))) (re.++ (re.* (re.union (str.to.re "VV") (str.to.re "WWW"))) (re.++ (re.union (re.+ (str.to.re "XXX")) (re.+ (str.to.re "Y"))) (re.++ (re.union (re.* (str.to.re "ZZZ")) (re.* (str.to.re "!"))) (re.++ (re.union (re.union (str.to.re """""") (str.to.re "##")) (re.union (str.to.re "$$") (str.to.re "%"))) (re.++ (re.+ (re.+ (str.to.re "&&"))) (re.++ (re.* (re.union (str.to.re "'''") (str.to.re "(("))) (re.++ (re.* (re.+ (str.to.re ")"))) (re.++ (re.union (re.* (str.to.re "***")) (re.* (str.to.re "+++"))) (re.++ (re.* (re.* (str.to.re ",,"))) (re.++ (re.union (re.* (str.to.re "--")) (re.* (str.to.re ".."))) (re.++ (re.+ (re.* (str.to.re "//"))) (re.++ (re.union (re.* (str.to.re "::")) (re.* (str.to.re ";;;"))) (re.++ (re.* (re.union (str.to.re "<<<") (str.to.re "==="))) (re.++ (re.* (re.union (str.to.re ">>>") (str.to.re "??"))) (re.++ (re.* (re.+ (str.to.re "@@@"))) (re.++ (re.union (re.union (str.to.re "[[") (str.to.re "\\\\\\")) (re.union (str.to.re "]]") (str.to.re "^^"))) (re.++ (re.* (re.+ (str.to.re "___"))) (re.++ (re.union (re.union (str.to.re "```") (str.to.re "{{")) (re.union (str.to.re "|||") (str.to.re "}}"))) (re.+ (re.union (str.to.re "~~") (str.to.re "00")))))))))))))))))))))))))))))))))))))))))))))))))))))))))
(check-sat)